10	5
0	5	1	5	2	3	4
1	2	8	10
2	2	7	9
3	2	9	10
4	2	8	10
5	1	6
6	2	9	7
7	1	8
8	1	11
9	1	11
10	1	11
11	0
0	0	0	0	0	0	0
1	2	1	3	0	0	0
2	10	2	1	1	0	3
3	2	5	2	0	5	1
4	2	0	2	0	3	0
5	3	0	1	0	0	0
6	10	0	0	2	2	0
7	8	0	0	2	4	2
8	7	0	4	0	0	0
9	4	0	2	4	0	0
10	10	1	3	4	0	3
11	0	0	0	0	0	0
4	5	5	5	4
